log/Reading instance from file data/g01.dat
Number of nodes: 11
Number of edges: 32
initialize CPLEX ... done.
Calling CPLEX solve ...
Version identifier: 12.10.0.0 | 2019-11-26 | 843d4de
CPXPARAM_Threads                                 1
CPXPARAM_TimeLimit                               3600
CPXPARAM_WorkMem                                 8192
Tried aggregator 2 times.
MIP Presolve eliminated 21 rows and 28 columns.
MIP Presolve modified 81 coefficients.
Aggregator did 8 substitutions.
Reduced MIP has 68 rows, 102 columns, and 363 nonzeros.
Reduced MIP has 55 binaries, 47 generals, 0 SOSs, and 0 indicators.
Presolve time = 0.00 sec. (0.67 ticks)
Found incumbent of value 902.000000 after 0.00 sec. (1.05 ticks)
Probing fixed 0 vars, tightened 82 bounds.
Probing time = 0.00 sec. (0.46 ticks)
Tried aggregator 1 time.
Detecting symmetries...
MIP Presolve modified 37 coefficients.
Reduced MIP has 68 rows, 102 columns, and 363 nonzeros.
Reduced MIP has 93 binaries, 9 generals, 0 SOSs, and 0 indicators.
Presolve time = 0.00 sec. (0.31 ticks)
Probing fixed 1 vars, tightened 0 bounds.
Probing changed sense of 37 constraints.
Probing time = 0.00 sec. (0.89 ticks)
Cover probing fixed 9 vars, tightened 14 bounds.
Clique table members: 274.
MIP emphasis: balance optimality and feasibility.
MIP search method: dynamic search.
Parallel mode: none, using 1 thread.
Root relaxation solution time = 0.00 sec. (0.13 ticks)

        Nodes                                         Cuts/
   Node  Left     Objective  IInf  Best Integer    Best Bound    ItCnt     Gap

*     0+    0                          902.0000        0.0000           100.00%
*     0     0      integral     0       46.0000       46.0000        2    0.00%
Elapsed time = 0.01 sec. (3.10 ticks, tree = 0.00 MB, solutions = 2)

Root node processing (before b&c):
  Real time             =    0.01 sec. (3.11 ticks)
Sequential b&c:
  Real time             =    0.00 sec. (0.00 ticks)
                          ------------
Total (root+branch&cut) =    0.01 sec. (3.11 ticks)
SOLUTION:

x(0,6)[0..1]  = 1
x(6,7)[0..1]  = 1
z(6)[0..1]  = 1
z(7)[0..1]  = 1


CPLEX finished.

CPLEX status: Optimal
Branch-and-Bound nodes: 0
Objective value: 46
CPU time: 0

